%chk=327-54-8.chk
%mem=8GB
%nprocshared=8
# opt freq b3lyp/aug-cc-pvtz EmpiricalDispersion=GD3 geom=connectivity

Title Card Required

0 1
 C                 -0.80463300    0.61476800   -0.01694700
 C                 -0.54281600   -0.74191300   -0.02687300
 C                  0.77502200   -1.15798000   -0.01258800
 C                  1.80876300   -0.23397900    0.00906500
 C                  1.54063100    1.12204600    0.01769500
 C                  0.22373200    1.54197500    0.00396000
 H                 -1.35750900   -1.44982400   -0.04264900
 H                  2.34432100    1.83935700    0.03404000
 F                  3.07256800   -0.66161100    0.02227100
 F                  1.06310600   -2.46047900   -0.01945500
 F                 -2.07447500    1.05346000   -0.03145100
 F                 -0.06242600    2.84561700    0.01160500
 O                 -3.65467500   -1.50398400   -0.04330000
 H                 -4.13008100   -1.67244500    0.77124500
 H                 -3.61248600   -0.54759700   -0.10883700

 1 2 2.0 6 2.0 11 1.0
 2 3 2.0 7 1.0
 3 4 1.5 10 1.0
 4 5 2.0 9 1.0
 5 6 2.0 8 1.0
 6 12 1.0
 7
 8
 9
 10
 11
 12
 13 14 1.0 15 1.0
 14
 15

