%chk=611-20-1.chk
%Mem=4Gb
%nprocshared=4
# opt freq b3lyp/aug-cc-pvtz EmpiricalDispersion=GD3

Title Card Required

0 1
 C                 -1.68271474    0.02239449   -0.86086271
 C                 -0.26921029    0.02638382   -0.86487454
 C                  0.43782439    0.89403495   -0.00002925
 C                 -0.26895988    1.76002192    0.86485833
 C                 -1.67503286    1.75504558    0.85135626
 C                 -2.37479254    0.89141836    0.00158648
 H                 -2.21544136   -0.62466303   -1.51780922
 H                  0.26326201   -0.62462390   -1.51752795
 H                  1.50257658    0.89294754    0.00077463
 H                  0.26287277    2.41204276    1.51762955
 O                 -3.80147224    0.91233092   -0.01929742
 H                 -4.12189917    1.51872059    0.65398126
 C                 -2.44855307    2.69867809    1.79898576
 N                 -3.02129833    3.39736354    2.50064004
 O                 -5.04467665    2.70995271    1.31110509
 H                 -5.29636801    3.34116595    0.63300384
 H                 -4.42085646    3.11984911    1.91478822


