%chk=h2o.chk
%mem=2GB
%nprocshared=2
# opt freq b3lyp/aug-cc-pvtz EmpiricalDispersion=GD3

Title Card Required

0 1
O          0.00000        0.00000        0.11779
H          0.00000        0.75545       -0.47116
H          0.00000       -0.75545       -0.47116

